9
0 25 91 90 94 64 35 13 78 
74 0 34 67 54 69 23 52 74 
19 40 0 69 67 19 88 9 90 
69 61 49 0 83 81 67 86 68 
27 79 59 51 0 36 36 19 79 
36 3 94 76 41 0 36 94 44 
98 32 9 90 23 45 0 89 8 
88 80 89 59 17 42 74 0 28 
93 53 84 49 38 96 51 38 0 
